webassembly/ejemplos_dzn/4/folder4_json_51.dzn
TERM = { '.', 's(2)', 'in_1', 's(1)', 's(0)', 's(3)', 'in_0'};
null = '.';
s = 4;
n = 7;
ndeps = 0;
max_registers_sz = 3;
NR = 0;
registers = [| |];
dependencies = [| |];
GET_ENUM = { GET1, GET2, GET3};
SET_ENUM = { SET1, SET2, SET3};
TEE_ENUM = { TEE1, TEE2, TEE3};
N = 4;
OP = { 'i32.sub_0', 'i32.load16_u_0', 'i32.load16_s_1', 'i32.load_2' };
in_ops = [2, 1, 1, 1 ];
out_ops = [1, 1, 1, 1 ];
in1 = ['s(2)', 'in_0', 's(0)', 's(1)' ];
in2 = ['in_1', '.', '.', '.' ];
in3 = ['.', '.', '.', '.' ];
out1 = ['s(3)', 's(0)', 's(1)', 's(2)' ];
out2 = ['.', '.', '.', '.' ];
out3 = ['.', '.', '.', '.' ];
comm = [false, false, false, false ];
gas = [1, 1, 1, 1 ];
sz = [1, 1, 1, 1 ];
stor = [false, false, false, false ];
lb = [ 1, 1, 1, 1 ];
ub = [ 4, 4, 4, 4 ];
startstack = [ 'in_0', 'in_1', null, null, null, null, null ];
endstack = [ 's(3)', null, null, null, null, null, null ];
