webassembly/ejemplos_results/4/folder4_json_51.txt
value = 4;
fgas = [1, 1, 1, 1];
fsize = [1, 1, 1, 1];
states = 
[|   in_0, in_1, '.', '.', '.', '.', '.'
 | 's(0)', in_1, '.', '.', '.', '.', '.'
 | 's(1)', in_1, '.', '.', '.', '.', '.'
 | 's(2)', in_1, '.', '.', '.', '.', '.'
 | 's(3)',  '.', '.', '.', '.', '.', '.'
 |];
register_states = 
[| '.', '.', '.'
 | '.', '.', '.'
 | '.', '.', '.'
 | '.', '.', '.'
 | '.', '.', '.'
 |];
program = [O('i32.load16_u_0'), O('i32.load16_s_1'), O('i32.load_2'), O('i32.sub_0')];
% time elapsed: 0.06 s
----------
==========
% time elapsed: 0.06 s
% [value > 3]
